decision_x1=[0,4];
decision_x2=[0,4];
decision_x3=[0,4];
decision_x4=[0,4];
decision_x5=[0,4];
decision_x6=[0,4];
decision_x7=[0,4];
decision_x8=[0,4];
random_y1=[0,4];
random_y2=[0,4];
random_y3=[0,4];
random_y4=[0,4];
constraint_x3_x1=[
0,1,1.7|
0,2,0.96|
0,3,1.6|
0,4,8.5|
1,0,4.7|
1,2,2.2|
1,3,8.8|
1,4,2.3|
2,0,2|
2,1,4.6|
2,3,9.7|
2,4,6.8|
3,0,3.6|
3,1,2.4|
3,2,5.2|
3,4,7.6|
4,0,3.9|
4,1,2|
4,2,8|
4,3,2.3|
];
constraint_x3_x2=[
0,1,2.4|
0,2,7.9|
0,3,0.98|
0,4,1.9|
1,0,5.1|
1,2,0.48|
1,3,3.7|
1,4,7.7|
2,0,3.4|
2,1,8.3|
2,3,1.9|
2,4,1.3|
3,0,7.2|
3,1,1.5|
3,2,0.92|
3,4,7.8|
4,0,4.4|
4,1,2.6|
4,2,5.2|
4,3,9.1|
];
constraint_x4_x2=[
0,1,4.9|
0,2,6.4|
0,3,3.1|
0,4,5.2|
1,0,1.3|
1,2,2.6|
1,3,6.2|
1,4,4|
2,0,9.4|
2,1,7.1|
2,3,0.44|
2,4,3.9|
3,0,8.3|
3,1,3.9|
3,2,5.9|
3,4,3.2|
4,0,6.4|
4,1,7.3|
4,2,5.2|
4,3,5.5|
];
constraint_x5_x1=[
0,1,0.88|
0,2,3.8|
0,3,1|
0,4,0.096|
1,0,9.5|
1,2,0.14|
1,3,8.7|
1,4,8.9|
2,0,0.076|
2,1,3.8|
2,3,6.5|
2,4,6.4|
3,0,6.3|
3,1,1.1|
3,2,5.6|
3,4,8.8|
4,0,7.7|
4,1,5.9|
4,2,5.1|
4,3,9.2|
];
constraint_x5_x4=[
0,1,8.3|
0,2,6.5|
0,3,9.2|
0,4,9|
1,0,6.7|
1,2,9|
1,3,6.4|
1,4,6|
2,0,1.2|
2,1,7.8|
2,3,3.9|
2,4,3.9|
3,0,1.5|
3,1,5.8|
3,2,4.2|
3,4,8.7|
4,0,0.49|
4,1,1.1|
4,2,0.78|
4,3,2.1|
];
constraint_x6_x1=[
0,1,9.3|
0,2,6.6|
0,3,1.4|
0,4,6.3|
1,0,6.3|
1,2,1.8|
1,3,2.4|
1,4,0.36|
2,0,2.3|
2,1,6.4|
2,3,8.9|
2,4,6.5|
3,0,7.5|
3,1,8.9|
3,2,7.4|
3,4,3.9|
4,0,2.1|
4,1,0.15|
4,2,0.66|
4,3,5.6|
];
constraint_x7_x1=[
0,1,9.8|
0,2,0.55|
0,3,4.6|
0,4,6.9|
1,0,2.1|
1,2,0.16|
1,3,9|
1,4,5.7|
2,0,7.3|
2,1,3.3|
2,3,0.56|
2,4,9.8|
3,0,8.8|
3,1,7.2|
3,2,0.89|
3,4,10|
4,0,4.8|
4,1,0.024|
4,2,3.4|
4,3,7.6|
];
constraint_x7_x2=[
0,1,3.3|
0,2,6.6|
0,3,9.2|
0,4,6.6|
1,0,9|
1,2,8.1|
1,3,5.8|
1,4,4|
2,0,4.3|
2,1,8.2|
2,3,6.9|
2,4,2.7|
3,0,4.7|
3,1,7.4|
3,2,5.4|
3,4,2.5|
4,0,6.3|
4,1,2|
4,2,9|
4,3,9.4|
];
constraint_x7_x3=[
0,1,0.62|
0,2,2.3|
0,3,1.7|
0,4,3.6|
1,0,5.8|
1,2,2.1|
1,3,0.75|
1,4,8.3|
2,0,5.8|
2,1,2.4|
2,3,5.7|
2,4,4.4|
3,0,2.7|
3,1,2.9|
3,2,7|
3,4,3.5|
4,0,4|
4,1,0.12|
4,2,1.3|
4,3,1.7|
];
constraint_x7_x5=[
0,1,6.5|
0,2,3.1|
0,3,8.5|
0,4,5.6|
1,0,0.44|
1,2,9.3|
1,3,0.54|
1,4,8.2|
2,0,7.5|
2,1,9.8|
2,3,7|
2,4,3|
3,0,5.8|
3,1,8.9|
3,2,5.1|
3,4,7.4|
4,0,5.6|
4,1,9|
4,2,2.7|
4,3,8.8|
];
constraint_x7_x6=[
0,1,8.4|
0,2,8.7|
0,3,5.4|
0,4,7.2|
1,0,0.96|
1,2,3.9|
1,3,4.3|
1,4,4.5|
2,0,7.8|
2,1,1.7|
2,3,6.6|
2,4,5.9|
3,0,2.4|
3,1,5.5|
3,2,6.4|
3,4,9.7|
4,0,2.8|
4,1,6.6|
4,2,2.1|
4,3,3.5|
];
constraint_x8_x3=[
0,1,4.2|
0,2,8.5|
0,3,1.7|
0,4,6.2|
1,0,5|
1,2,8.3|
1,3,1.8|
1,4,3.7|
2,0,4.7|
2,1,7.3|
2,3,4|
2,4,6|
3,0,4|
3,1,6.6|
3,2,8.9|
3,4,4.6|
4,0,5.7|
4,1,6.2|
4,2,2.9|
4,3,7.3|
];
constraint_x8_x4=[
0,1,6.9|
0,2,3.6|
0,3,2.4|
0,4,8.8|
1,0,3.7|
1,2,3.1|
1,3,2.9|
1,4,5|
2,0,1.9|
2,1,7.8|
2,3,1.4|
2,4,8.2|
3,0,7.9|
3,1,6.5|
3,2,7.2|
3,4,3.1|
4,0,5.6|
4,1,3|
4,2,2.4|
4,3,3.7|
];
constraint_x8_x7=[
0,1,6.7|
0,2,5.8|
0,3,3.8|
0,4,2.5|
1,0,2|
1,2,6.7|
1,3,5.6|
1,4,1.6|
2,0,1.2|
2,1,9.4|
2,3,6.8|
2,4,2.5|
3,0,7|
3,1,9.7|
3,2,9.5|
3,4,6.3|
4,0,1.7|
4,1,5.8|
4,2,7.8|
4,3,0.35|
];
constraint_x1_y1=[
0,0,4.5|
0,1,6.7|
0,2,9.2|
0,3,0.96|
0,4,1.7|
1,0,1.5|
1,1,3.9|
1,2,5.4|
1,3,2.7|
1,4,7.8|
2,0,4.8|
2,1,2.3|
2,2,1.8|
2,3,6.1|
2,4,3.3|
3,0,8|
3,1,6.6|
3,2,6.5|
3,3,2|
3,4,5.9|
4,0,3.7|
4,1,0.99|
4,2,3.5|
4,3,7.9|
4,4,9|
];
constraint_x2_y2=[
0,0,6.1|
0,1,1.4|
0,2,6.3|
0,3,9.3|
0,4,9.5|
1,0,1.5|
1,1,9.5|
1,2,0.94|
1,3,0.76|
1,4,7.8|
2,0,7.1|
2,1,4.8|
2,2,7.9|
2,3,4.9|
2,4,2.2|
3,0,5|
3,1,1.4|
3,2,6.9|
3,3,0.43|
3,4,0.17|
4,0,5.3|
4,1,6|
4,2,0.7|
4,3,8.8|
4,4,6.1|
];
constraint_x3_y3=[
0,0,1.2|
0,1,1.3|
0,2,6.3|
0,3,0.84|
0,4,9.9|
1,0,9.5|
1,1,8.9|
1,2,4.1|
1,3,4.1|
1,4,6.6|
2,0,9.6|
2,1,6.2|
2,2,6.6|
2,3,2.4|
2,4,4.8|
3,0,0.47|
3,1,8|
3,2,8.5|
3,3,8.3|
3,4,3.1|
4,0,5.4|
4,1,9.7|
4,2,6|
4,3,4.5|
4,4,3.9|
];
constraint_x4_y4=[
0,0,0.77|
0,1,0.38|
0,2,9.2|
0,3,2.2|
0,4,7.6|
1,0,6.2|
1,1,6.2|
1,2,5.3|
1,3,9.4|
1,4,6.7|
2,0,4.2|
2,1,5.5|
2,2,4.7|
2,3,3.4|
2,4,1.3|
3,0,3.6|
3,1,1.3|
3,2,8.8|
3,3,0.21|
3,4,0.88|
4,0,7.4|
4,1,1.6|
4,2,7.4|
4,3,4|
4,4,0.014|
];
initial_distribution_y1=[0.054,0.084,0.12,0.23,0.52];
initial_distribution_y2=[0.23,0.25,0.23,0.086,0.21];
initial_distribution_y3=[0.24,0.2,0.3,0.17,0.089];
initial_distribution_y4=[0.2,0.089,0.15,0.24,0.32];
transition_y1=[
0.043,0.09,0.19,0.35,0.33|
0.1,0.36,0.15,0.22,0.16|
0.016,0.19,0.27,0.11,0.41|
0.37,0.17,0.29,0.14,0.032|
0.12,0.092,0.34,0.093,0.35|
];
transition_y2=[
0.36,0.14,0.33,0.066,0.11|
0.29,0.18,0.12,0.12,0.29|
0.34,0.24,0.16,0.12,0.14|
0.37,0.2,0.32,0.0089,0.1|
0.13,0.19,0.12,0.25,0.32|
];
transition_y3=[
0.15,0.25,0.18,0.34,0.082|
0.075,0.29,0.12,0.29,0.23|
0.19,0.008,0.19,0.29,0.33|
0.19,0.12,0.091,0.35,0.25|
0.07,0.1,0.32,0.37,0.14|
];
transition_y4=[
0.28,0.31,0.1,0.051,0.25|
0.14,0.14,0.29,0.17,0.27|
0.44,0.033,0.079,0.2,0.25|
0.21,0.26,0.1,0.3,0.13|
0.19,0.18,0.16,0.2,0.26|
];
